solution status: optimal solution found
objective value:                                   15
x52                                                 1 	(obj:1)
x54                                                 1 	(obj:1)
x67                                                 1 	(obj:1)
x68                                                 1 	(obj:1)
x76                                                 1 	(obj:1)
x78                                                 1 	(obj:1)
x79                                                 1 	(obj:1)
x80                                                 1 	(obj:1)
x84                                                 1 	(obj:1)
x86                                                 1 	(obj:1)
x90                                                 1 	(obj:1)
x91                                                 1 	(obj:1)
x92                                                 1 	(obj:1)
x93                                                 1 	(obj:1)
x94                                                 1 	(obj:1)
$_13__3_y                                          23 	(obj:0)
$_13__3_z                                          23 	(obj:0)
thingy.flush_stage_in_hole_y                       20 	(obj:0)
thingy.flush_stage_in_hole_z                       20 	(obj:0)
thingy.ctrl_stage_in_hole_y                        22 	(obj:0)
thingy.ctrl_stage_in_hole_z                        20 	(obj:0)
thingy.thingy.chamber[0].first.vcollect_y                   21 	(obj:0)
thingy.thingy.chamber[0].first.vcollect_z                   22 	(obj:0)
thingy.ctrl_sv1_hole_y                             20 	(obj:0)
thingy.ctrl_sv1_hole_z                             19 	(obj:0)
thingy.prep_outlet_pinholes[1].hole_y                   21 	(obj:0)
thingy.prep_outlet_pinholes[1].hole_z                   23 	(obj:0)
thingy.thingy.chamber[2].first.vcollect_y                   24 	(obj:0)
thingy.thingy.chamber[2].first.vcollect_z                   22 	(obj:0)
thingy.thingy.chamber[3].first.vcollect_y                   23 	(obj:0)
thingy.thingy.chamber[3].first.vcollect_z                   19 	(obj:0)
thingy.flush_prep_outlet_pinholes[1].hole_y                   22 	(obj:0)
thingy.flush_prep_outlet_pinholes[1].hole_z                   19 	(obj:0)
thingy.thingy.chamber[1].first.vcollect_y                   23 	(obj:0)
thingy.thingy.chamber[1].first.vcollect_z                   22 	(obj:0)
thingy.flush_sieve_hole_y                          19 	(obj:0)
thingy.flush_sieve_hole_z                          20 	(obj:0)
thingy.ctrl_prep_outlet_pinholes[1].hole_y                   25 	(obj:0)
thingy.ctrl_prep_outlet_pinholes[1].hole_z                   19 	(obj:0)
thingy.flush_sv1_hole_y                            24 	(obj:0)
thingy.flush_sv1_hole_z                            18 	(obj:0)
$_16__3_y                                          23 	(obj:0)
$_16__3_z                                          21 	(obj:0)
$_14__3_y                                          24 	(obj:0)
$_14__3_z                                          23 	(obj:0)
$_15__3_y                                          24 	(obj:0)
$_15__3_z                                          21 	(obj:0)
thingy.thingy.prep.vout3_y                         24 	(obj:0)
thingy.thingy.prep.vout3_z                         19 	(obj:0)
$_11__3_y                                          24 	(obj:0)
$_11__3_z                                          24 	(obj:0)
thingy.ctrl_sieve_hole_y                           23 	(obj:0)
thingy.ctrl_sieve_hole_z                           20 	(obj:0)
